(set-info :smt-lib-version 2.6)
(set-logic QF_UF)
(set-info :source |
Generated by: David Deharbe, CLEARSY
Generated on: 2019-09-09
Generator: bxml;pog;pog2smt (Atelier B)
Application: B-method
Target solver: CVC4, Z3
|)
(set-info :license "https://creativecommons.org/licenses/by-nc/4.0/")
(set-info :category "industrial")
(set-info :status sat)
; Prelude
(declare-sort U 0)
(declare-fun |*i| (U U) U)
(declare-fun |+i| (U U) U)
(declare-fun |-i| (U U) U)
(declare-fun idiv (U U) U)
(declare-fun |*r| (U U) U)
(declare-fun |+r| (U U) U)
(declare-fun |-r| (U U) U)
(declare-fun rdiv (U U) U)
(declare-fun modulo (U U) U)
(declare-fun |<i| (U U) Bool)
(declare-fun |<=i| (U U) Bool)
(declare-fun |>i| (U U) Bool)
(declare-fun |>=i| (U U) Bool)
(declare-fun |<r| (U U) Bool)
(declare-fun |<=r| (U U) Bool)
(declare-fun |>r| (U U) Bool)
(declare-fun |>=r| (U U) Bool)
(declare-fun iuminus (U) U)
(declare-fun ruminus (U) U)
(declare-fun TRUE () U)
(declare-fun FALSE () U)
(assert (not (= TRUE FALSE)))
(declare-fun empty () U)
(declare-fun bool (Bool) U)
(declare-fun BOOL () U)
(declare-fun INT () U)
(declare-fun INTEGER () U)
(declare-fun NAT () U)
(declare-fun NAT1 () U)
(declare-fun NATURAL () U)
(declare-fun NATURAL1 () U)
(declare-fun FLOAT () U)
(declare-fun MaxInt () U)
(declare-fun MinInt () U)
(declare-fun |STRING| () U)
(declare-fun REAL () U)
(declare-fun set_prod (U U) U)
(declare-fun set_diff (U U) U)
(declare-fun mapplet (U U) U)
(declare-fun |**i| (U U) U)
(declare-fun |**r| (U U) U)
(declare-fun |+->| (U U) U)
(declare-fun |+->>| (U U) U)
(declare-fun |-->| (U U) U)
(declare-fun |-->>| (U U) U)
(declare-fun |<->| (U U) U)
(declare-fun |>+>| (U U) U)
(declare-fun |>->| (U U) U)
(declare-fun |>+>>| (U U) U)
(declare-fun |>->>| (U U) U)
(declare-fun |->| (U U) U)
(declare-fun interval (U U) U)
(declare-fun composition (U U) U)
(declare-fun binary_inter (U U) U)
(declare-fun restriction_head (U U) U)
(declare-fun semicolon (U U) U)
(declare-fun |<+| (U U) U)
(declare-fun |<-| (U U) U)
(declare-fun domain_subtraction (U U) U)
(declare-fun domain_restriction (U U) U)
(declare-fun |><| (U U) U)
(declare-fun parallel_product (U U) U)
(declare-fun binary_union (U U) U)
(declare-fun restriction_tail (U U) U)
(declare-fun concatenate (U U) U)
(declare-fun range_restriction (U U) U)
(declare-fun range_subtraction (U U) U)
(declare-fun image (U U) U)
(declare-fun apply (U U) U)
(declare-fun prj1 (U U) U)
(declare-fun prj2 (U U) U)
(declare-fun iterate (U U) U)
(declare-fun |const| (U U) U)
(declare-fun rank (U U) U)
(declare-fun father (U U) U)
(declare-fun subtree (U U) U)
(declare-fun arity (U U) U)
(declare-fun |+f| (U U) U)
(declare-fun |-f| (U U) U)
(declare-fun |*f| (U U) U)
(declare-fun |fdiv| (U U) U)
(declare-fun tbin (U U U) U)
(declare-fun son (U U U) U)
(declare-fun mem (U U) Bool)
(declare-fun subset (U U) Bool)
(declare-fun strict_subset (U U) Bool)
(declare-fun |<=f| (U U) Bool)
(declare-fun |<f| (U U) Bool)
(declare-fun |>=f| (U U) Bool)
(declare-fun |>f| (U U) Bool)
(declare-fun imax (U) U)
(declare-fun imin (U) U)
(declare-fun rmax (U) U)
(declare-fun rmin (U) U)
(declare-fun card (U) U)
(declare-fun dom (U) U)
(declare-fun ran (U) U)
(declare-fun POW (U) U)
(declare-fun POW1 (U) U)
(declare-fun FIN (U) U)
(declare-fun FIN1 (U) U)
(declare-fun union (U) U)
(declare-fun inter (U) U)
(declare-fun seq (U) U)
(declare-fun seq1 (U) U)
(declare-fun iseq (U) U)
(declare-fun iseq1 (U) U)
(declare-fun inverse (U) U)
(declare-fun size (U) U)
(declare-fun perm (U) U)
(declare-fun first (U) U)
(declare-fun last (U) U)
(declare-fun id (U) U)
(declare-fun closure (U) U)
(declare-fun closure1 (U) U)
(declare-fun tail (U) U)
(declare-fun front (U) U)
(declare-fun reverse (U) U)
(declare-fun rev (U) U)
(declare-fun conc (U) U)
(declare-fun succ (U) U)
(declare-fun pred (U) U)
(declare-fun rel (U) U)
(declare-fun fnc (U) U)
(declare-fun real (U) U)
(declare-fun floor (U) U)
(declare-fun ceiling (U) U)
(declare-fun tree (U) U)
(declare-fun btree (U) U)
(declare-fun top (U) U)
(declare-fun sons (U) U)
(declare-fun prefix (U) U)
(declare-fun postfix (U) U)
(declare-fun sizet (U) U)
(declare-fun mirror (U) U)
(declare-fun left (U) U)
(declare-fun right (U) U)
(declare-fun infix (U) U)
(declare-fun ubin (U) U)
(declare-fun SEQ (U) U)
(declare-fun SET (U) U)
; Opaque formulas
(declare-fun e0 () U)
(declare-fun e15 () U)
(declare-fun e37 () U)
(declare-fun e39 () U)
(declare-fun e41 () U)
(declare-fun e43 () U)
(declare-fun e45 () U)
(declare-fun e47 () U)
(declare-fun e49 () U)
(declare-fun e51 () U)
(declare-fun e53 () U)
(declare-fun e55 () U)
(declare-fun e57 () U)
(declare-fun e59 () U)
(declare-fun e61 () U)
(declare-fun e63 () U)
(declare-fun e65 () U)
(declare-fun e67 () U)
(declare-fun e69 () U)
(declare-fun e71 () U)
(declare-fun e73 () U)
(declare-fun e75 () U)
(declare-fun e77 () U)
(declare-fun e79 () U)
(declare-fun e81 () U)
(declare-fun e83 () U)
(declare-fun e85 () U)
(declare-fun e87 () U)
(declare-fun e89 () U)
(declare-fun e91 () U)
(declare-fun e93 () U)
(declare-fun e95 () U)
(declare-fun e27 () U)
(declare-fun e98 () U)
(declare-fun e100 () U)
(declare-fun e102 () U)
(declare-fun e104 () U)
(declare-fun e106 () U)
(declare-fun e108 () U)
(declare-fun e110 () U)
(declare-fun e112 () U)
(declare-fun e114 () U)
(declare-fun e116 () U)
(declare-fun e118 () U)
(declare-fun e120 () U)
(declare-fun e122 () U)
(declare-fun e124 () U)
(declare-fun e126 () U)
(declare-fun e128 () U)
(declare-fun e130 () U)
(declare-fun e132 () U)
(declare-fun e134 () U)
(declare-fun e136 () U)
(declare-fun e138 () U)
(declare-fun e140 () U)
(declare-fun e142 () U)
(declare-fun e144 () U)
(declare-fun e146 () U)
(declare-fun e148 () U)
(declare-fun e150 () U)
(declare-fun e26 () U)
(declare-fun g_s0_1 () U)
(declare-fun g_s1_2 () U)
(declare-fun g_s10_11 () U)
(declare-fun g_s13_14 () U)
(declare-fun g_s14_17 () U)
(declare-fun g_s16_19 () U)
(declare-fun g_s18_20 () U)
(declare-fun g_s19_21 () U)
(declare-fun g_s2_3 () U)
(declare-fun g_s20_22 () U)
(declare-fun g_s21_23 () U)
(declare-fun g_s22_24 () U)
(declare-fun g_s23_25 () U)
(declare-fun g_s24_28 () U)
(declare-fun g_s25_29 () U)
(declare-fun g_s26_30 () U)
(declare-fun g_s27_31 () U)
(declare-fun g_s28_32 () U)
(declare-fun g_s29_33 () U)
(declare-fun g_s3_4 () U)
(declare-fun g_s30_34 () U)
(declare-fun g_s31_35 () U)
(declare-fun g_s32_36 () U)
(declare-fun g_s33_38 () U)
(declare-fun g_s34_40 () U)
(declare-fun g_s35_42 () U)
(declare-fun g_s36_44 () U)
(declare-fun g_s37_46 () U)
(declare-fun g_s38_48 () U)
(declare-fun g_s39_50 () U)
(declare-fun g_s4_5 () U)
(declare-fun g_s40_52 () U)
(declare-fun g_s41_54 () U)
(declare-fun g_s42_56 () U)
(declare-fun g_s43_58 () U)
(declare-fun g_s44_60 () U)
(declare-fun g_s45_62 () U)
(declare-fun g_s46_64 () U)
(declare-fun g_s47_66 () U)
(declare-fun g_s48_68 () U)
(declare-fun g_s49_70 () U)
(declare-fun g_s5_6 () U)
(declare-fun g_s50_72 () U)
(declare-fun g_s51_74 () U)
(declare-fun g_s52_76 () U)
(declare-fun g_s53_78 () U)
(declare-fun g_s54_80 () U)
(declare-fun g_s55_82 () U)
(declare-fun g_s56_84 () U)
(declare-fun g_s57_86 () U)
(declare-fun g_s58_88 () U)
(declare-fun g_s59_90 () U)
(declare-fun g_s6_7 () U)
(declare-fun g_s60_92 () U)
(declare-fun g_s61_94 () U)
(declare-fun g_s62_96 () U)
(declare-fun g_s63_97 () U)
(declare-fun g_s64_99 () U)
(declare-fun g_s65_101 () U)
(declare-fun g_s66_103 () U)
(declare-fun g_s67_105 () U)
(declare-fun g_s68_107 () U)
(declare-fun g_s69_109 () U)
(declare-fun g_s7_8 () U)
(declare-fun g_s70_111 () U)
(declare-fun g_s71_113 () U)
(declare-fun g_s72_115 () U)
(declare-fun g_s73_117 () U)
(declare-fun g_s74_119 () U)
(declare-fun g_s75_121 () U)
(declare-fun g_s76_123 () U)
(declare-fun g_s77_125 () U)
(declare-fun g_s78_127 () U)
(declare-fun g_s79_129 () U)
(declare-fun g_s8_9 () U)
(declare-fun g_s80_131 () U)
(declare-fun g_s81_133 () U)
(declare-fun g_s82_135 () U)
(declare-fun g_s83_137 () U)
(declare-fun g_s84_139 () U)
(declare-fun g_s85_141 () U)
(declare-fun g_s86_143 () U)
(declare-fun g_s87_145 () U)
(declare-fun g_s88_147 () U)
(declare-fun g_s89_149 () U)
(declare-fun g_s9_10 () U)
(declare-fun g_s90_151 () U)
(declare-fun g_s91_152 () U)
(declare-fun g_s92_153 () U)
(declare-fun g_s94_154 () U)
(declare-fun g_s94$1_155 () U)
(declare-fun g_s95_156 () U)
(declare-fun g_s96$1_157 () U)
(declare-fun e16 () U)
(declare-fun e18 () U)
(declare-fun e13 () U)
(declare-fun e12 () U)
; Defines
(define-fun |def_B definitions| () Bool (and (= NAT (interval e0 MaxInt)) (= INT (interval MinInt MaxInt))))
(define-fun |def_ctx| () Bool (and (not (= g_s0_1 empty)) (not (= g_s1_2 empty)) (not (= g_s2_3 empty)) (not (= g_s3_4 empty)) (not (= g_s4_5 empty)) (not (= g_s5_6 empty)) (not (= g_s6_7 empty)) (not (= g_s7_8 empty)) (not (= g_s8_9 empty)) (not (= g_s9_10 empty)) (mem g_s10_11 (|-->| (set_prod INTEGER NATURAL) INTEGER)) (= g_s10_11 (binary_union e13 e12)) (mem g_s13_14 (|-->| BOOL NAT)) (= g_s13_14 (SET (mapplet (mapplet FALSE e0) (mapplet TRUE e15)))) (= g_s14_17 e16) (= g_s16_19 e18) (mem g_s18_20 NAT1) (= g_s18_20 MaxInt) (mem g_s19_21 NAT1) (mem g_s20_22 NAT1) (mem g_s21_23 NAT1) (mem g_s22_24 NAT1) (mem g_s23_25 NAT1) (= g_s22_24 e26) (= g_s23_25 e27) (mem g_s24_28 INT) (mem g_s25_29 INT) (mem g_s26_30 INT) (mem g_s27_31 INT) (mem g_s28_32 INT)))
(define-fun |def_seext| () Bool (and (= g_s29_33 TRUE) (= g_s30_34 FALSE) (= g_s31_35 e0) (= g_s32_36 e15) (= g_s33_38 e37) (= g_s34_40 e39) (= g_s35_42 e41) (= g_s36_44 e43) (= g_s37_46 e45) (= g_s38_48 e47) (= g_s39_50 e49) (= g_s40_52 e51) (= g_s41_54 e53) (= g_s42_56 e55) (= g_s43_58 e57) (= g_s44_60 e59) (= g_s45_62 e61) (= g_s46_64 e63) (= g_s47_66 e65) (= g_s48_68 e67) (= g_s49_70 e69) (= g_s50_72 e71) (= g_s51_74 e73) (= g_s52_76 e75) (= g_s53_78 e77) (= g_s54_80 e79) (= g_s55_82 e81) (= g_s56_84 e83) (= g_s57_86 e85) (= g_s58_88 e87) (= g_s59_90 e89) (= g_s60_92 e91) (= g_s61_94 e93) (= g_s62_96 e95) (= g_s63_97 e27) (= g_s64_99 e98) (= g_s65_101 e100) (= g_s66_103 e102) (= g_s67_105 e104) (= g_s68_107 e106) (= g_s69_109 e108) (= g_s70_111 e110) (= g_s71_113 e112) (= g_s72_115 e114) (= g_s73_117 e116) (= g_s74_119 e118) (= g_s75_121 e120) (= g_s76_123 e122) (= g_s77_125 e124) (= g_s78_127 e126) (= g_s79_129 e128) (= g_s80_131 e130) (= g_s81_133 e132) (= g_s82_135 e134) (= g_s83_137 e136) (= g_s84_139 e138) (= g_s85_141 e140) (= g_s86_143 e142) (= g_s87_145 e144) (= g_s88_147 e146) (= g_s89_149 e148) (= g_s90_151 e150) (mem g_s91_152 g_s8_9)))
(define-fun |def_mchcst| () Bool true)
(define-fun |def_aprp| () Bool  (= g_s92_153 NAT))
(define-fun |def_abs| () Bool true)
(define-fun |def_inv| () Bool true)
(define-fun |def_ass| () Bool true)
(define-fun |def_sets| () Bool true)
(define-fun |def_imlprp| () Bool  (= g_s92_153 NAT))
(define-fun |def_imprp| () Bool true)
(define-fun |def_imext| () Bool true)
; PO group 0 
(assert |def_B definitions|)
(assert |def_ctx|)
(assert |def_mchcst|)
(assert |def_aprp|)
(assert |def_imlprp|)
(assert |def_imprp|)
(assert |def_imext|)
(assert |def_seext|)
(assert |def_abs|)
(assert |def_inv|)
(assert |def_ass|)
(assert (= g_s94$1_155 g_s94_154))
(define-fun lh_1 () Bool (mem g_s95_156 g_s0_1))
(define-fun lh_2 () Bool (mem g_s96$1_157 INTEGER))
(define-fun lh_3 () Bool (not (= (bool (and (= (bool (|>=i| g_s96$1_157 e0)) TRUE) (= (bool (|<=i| g_s96$1_157 g_s18_20)) TRUE))) FALSE)))
; PO 1 in group 0
(assert (not (=> (and lh_1 lh_2 lh_3) (mem g_s96$1_157 g_s92_153))))
(check-sat)
(exit)